; head-rollsXstanding-quadriceps-stretch
(set-info :status unknown)
(set-logic QF_AUFLIRA)
(declare-fun |HandRight Norm| () Real)
(declare-fun |HandRight Z| () Real)
(declare-fun |SpineMid Norm| () Real)
(declare-fun |SpineShoulder Norm| () Real)
(declare-fun |ShoulderRight Norm| () Real)
(declare-fun |ShoulderRight Z| () Real)
(declare-fun |ElbowRight Norm| () Real)
(declare-fun |ElbowRight Z| () Real)
(declare-fun |WristRight Norm| () Real)
(declare-fun |WristRight Z| () Real)
(declare-fun |AnkleRight Norm| () Real)
(declare-fun |HipRight Norm| () Real)
(declare-fun |HipRight Z| () Real)
(declare-fun |KneeRight Norm| () Real)
(declare-fun |HandRight Y| () Real)
(declare-fun |ShoulderRight Y| () Real)
(declare-fun |ElbowRight Y| () Real)
(declare-fun |WristRight Y| () Real)
(declare-fun |HipRight Y| () Real)
(declare-fun |HandRight X| () Real)
(declare-fun |ShoulderRight X| () Real)
(declare-fun |ElbowRight X| () Real)
(declare-fun |WristRight X| () Real)
(declare-fun |HipRight X| () Real)
(declare-fun |ThumbRight Z| () Real)
(declare-fun |ThumbRight Y| () Real)
(declare-fun |ThumbRight X| () Real)
(assert
(let ((?x3920 (* |HandRight Z| |HandRight Norm|)))
(let ((?x4372 (* 0.0 |SpineMid Norm|)))
(let ((?x10834 (* 0.0 |SpineShoulder Norm|)))
(let ((?x4101 (* |ShoulderRight Z| |ShoulderRight Norm|)))
(let ((?x5251 (* |ElbowRight Z| |ElbowRight Norm|)))
(let ((?x5344 (* |WristRight Z| |WristRight Norm|)))
(let ((?x5111 (+ 0.0 ?x3920)))
(let ((?x4613 (+ ?x5111 ?x5344)))
(let ((?x4022 (+ ?x4613 ?x5251)))
(let ((?x4695 (+ ?x4022 ?x4101)))
(let ((?x2440 (+ ?x4695 ?x10834)))
(let ((?x6416 (+ ?x2440 ?x4372)))
(let ((?x8085 (+ ?x6416 ?x3920)))
(let ((?x2389 (* (~ 1.0) 0.0)))
(let ((?x3991 (* 0.0 (~ 1.0))))
(let ((?x11678 (+ ?x3991 ?x2389)))
(let ((?x12245 (* 1.0 0.0)))
(let ((?x13906 (+ ?x3991 ?x12245)))
(let (($x134 (>= (~ 1.0) 0.0)))
(let ((?x11161 (ite $x134 ?x13906 ?x11678)))
(let ((?x135 (- 0.0 (~ 1.0))))
(let ((?x136 (ite $x134 (~ 1.0) ?x135)))
(let ((?x113 (- 0.0 0.0)))
(let (($x112 (>= 0.0 0.0)))
(let ((?x114 (ite $x112 0.0 ?x113)))
(let (($x4784 (>= ?x114 ?x136)))
(let ((?x5815 (ite $x4784 (~ 1.0) ?x11161)))
(let ((?x4959 (* (/ 129.0 500.0) ?x5815)))
(let ((?x2109 (* 0.0 0.0)))
(let ((?x1304 (* 1.0 (~ 1.0))))
(let ((?x3066 (+ ?x1304 ?x2109)))
(let ((?x1366 (* (~ 1.0) (~ 1.0))))
(let ((?x10592 (+ ?x1366 ?x2109)))
(let ((?x4163 (ite $x134 ?x10592 ?x3066)))
(let ((?x10539 (+ ?x12245 ?x2109)))
(let ((?x7104 (+ ?x2389 ?x2109)))
(let ((?x4322 (ite $x112 ?x7104 ?x10539)))
(let ((?x7055 (ite $x4784 ?x4322 ?x4163)))
(let ((?x7965 (* (/ 193.0 200.0) ?x7055)))
(let ((?x5125 (+ ?x7965 ?x4959)))
(let ((?x11072 (* (~ (/ 129.0 500.0)) ?x5815)))
(let ((?x2467 (+ ?x7965 ?x11072)))
(let (($x5323 (>= ?x7055 0.0)))
(let ((?x10907 (ite $x5323 ?x2467 ?x5125)))
(let ((?x1980 (- 0.0 ?x7055)))
(let ((?x9892 (ite $x5323 ?x7055 ?x1980)))
(let ((?x9289 (+ ?x2109 ?x2389)))
(let ((?x958 (+ ?x2109 ?x12245)))
(let ((?x2080 (ite $x112 ?x958 ?x9289)))
(let ((?x2501 (ite $x4784 ?x2080 0.0)))
(let ((?x11513 (- 0.0 ?x2501)))
(let (($x8975 (>= ?x2501 0.0)))
(let ((?x9551 (ite $x8975 ?x2501 ?x11513)))
(let (($x331 (>= ?x9551 ?x9892)))
(let ((?x9295 (ite $x331 ?x7055 ?x10907)))
(let ((?x11883 (* ?x9295 |AnkleRight Norm|)))
(let ((?x279 (* |HipRight Z| |HipRight Norm|)))
(let ((?x4178 (* 0.0 |KneeRight Norm|)))
(let ((?x9369 (+ 0.0 ?x11883)))
(let ((?x11026 (+ ?x9369 ?x4178)))
(let ((?x9127 (+ ?x11026 ?x279)))
(let ((?x3879 (+ ?x9127 ?x11883)))
(let ((?x7225 (- ?x3879 ?x8085)))
(let ((?x9639 (- 0.0 ?x7225)))
(let (($x9616 (>= ?x7225 0.0)))
(let ((?x9944 (ite $x9616 ?x7225 ?x9639)))
(let ((?x4421 (* |HandRight Y| |HandRight Norm|)))
(let ((?x9973 (* 1.0 |SpineMid Norm|)))
(let ((?x7483 (* 1.0 |SpineShoulder Norm|)))
(let ((?x5302 (* |ShoulderRight Y| |ShoulderRight Norm|)))
(let ((?x5405 (* |ElbowRight Y| |ElbowRight Norm|)))
(let ((?x4865 (* |WristRight Y| |WristRight Norm|)))
(let ((?x4697 (+ 0.0 ?x4421)))
(let ((?x4533 (+ ?x4697 ?x4865)))
(let ((?x5310 (+ ?x4533 ?x5405)))
(let ((?x5396 (+ ?x5310 ?x5302)))
(let ((?x2554 (+ ?x5396 ?x7483)))
(let ((?x4294 (+ ?x2554 ?x9973)))
(let ((?x11372 (+ ?x4294 ?x4421)))
(let ((?x10992 (* (/ 193.0 200.0) ?x5815)))
(let ((?x3781 (* (~ (/ 129.0 500.0)) ?x7055)))
(let ((?x9903 (+ ?x3781 ?x10992)))
(let ((?x9670 (* (/ 129.0 500.0) ?x7055)))
(let ((?x5852 (+ ?x9670 ?x10992)))
(let ((?x8065 (ite $x5323 ?x5852 ?x9903)))
(let ((?x8923 (* (~ (/ 129.0 500.0)) ?x2501)))
(let ((?x10772 (+ ?x8923 ?x10992)))
(let ((?x5600 (* (/ 129.0 500.0) ?x2501)))
(let ((?x7614 (+ ?x5600 ?x10992)))
(let ((?x8554 (ite $x8975 ?x7614 ?x10772)))
(let ((?x6008 (ite $x331 ?x8554 ?x8065)))
(let ((?x11446 (* ?x6008 |AnkleRight Norm|)))
(let ((?x6435 (* |HipRight Y| |HipRight Norm|)))
(let ((?x9240 (* (~ 1.0) |KneeRight Norm|)))
(let ((?x5561 (+ 0.0 ?x11446)))
(let ((?x8725 (+ ?x5561 ?x9240)))
(let ((?x11222 (+ ?x8725 ?x6435)))
(let ((?x7250 (+ ?x11222 ?x11446)))
(let ((?x11858 (- ?x7250 ?x11372)))
(let ((?x1811 (- 0.0 ?x11858)))
(let (($x7956 (>= ?x11858 0.0)))
(let ((?x8481 (ite $x7956 ?x11858 ?x1811)))
(let ((?x5582 (* |HandRight X| |HandRight Norm|)))
(let ((?x5113 (* |ShoulderRight X| |ShoulderRight Norm|)))
(let ((?x5038 (* |ElbowRight X| |ElbowRight Norm|)))
(let ((?x3199 (* |WristRight X| |WristRight Norm|)))
(let ((?x4842 (+ 0.0 ?x5582)))
(let ((?x2189 (+ ?x4842 ?x3199)))
(let ((?x3677 (+ ?x2189 ?x5038)))
(let ((?x4996 (+ ?x3677 ?x5113)))
(let ((?x5859 (+ ?x4996 ?x10834)))
(let ((?x9818 (+ ?x5859 ?x4372)))
(let ((?x4115 (+ ?x9818 ?x5582)))
(let ((?x9643 (* (/ 193.0 200.0) ?x2501)))
(let ((?x8900 (+ ?x9643 ?x4959)))
(let ((?x13827 (+ ?x9643 ?x11072)))
(let ((?x9231 (ite $x8975 ?x13827 ?x8900)))
(let ((?x3616 (ite $x331 ?x9231 ?x2501)))
(let ((?x8742 (* ?x3616 |AnkleRight Norm|)))
(let ((?x277 (* |HipRight X| |HipRight Norm|)))
(let ((?x8470 (+ 0.0 ?x8742)))
(let ((?x8467 (+ ?x8470 ?x4178)))
(let ((?x558 (+ ?x8467 ?x277)))
(let ((?x6368 (+ ?x558 ?x8742)))
(let ((?x8613 (- ?x6368 ?x4115)))
(let ((?x8477 (- 0.0 ?x8613)))
(let (($x9400 (>= ?x8613 0.0)))
(let ((?x5612 (ite $x9400 ?x8613 ?x8477)))
(let (($x4816 (>= ?x5612 ?x8481)))
(let ((?x8721 (ite $x4816 ?x5612 ?x8481)))
(let (($x6716 (>= ?x8721 ?x9944)))
(let ((?x3521 (ite $x6716 ?x8721 ?x9944)))
(let (($x2194 (< ?x3521 (/ 1.0 5.0))))
(let (($x7073 (and true $x2194)))
(let ((?x13948 (* ?x7055 |AnkleRight Norm|)))
(let ((?x5877 (+ 0.0 ?x13948)))
(let ((?x3001 (+ ?x5877 ?x4178)))
(let ((?x10829 (+ ?x3001 ?x279)))
(let ((?x7314 (+ ?x10829 ?x13948)))
(let ((?x7843 (- ?x7314 ?x8085)))
(let ((?x7680 (- 0.0 ?x7843)))
(let (($x8720 (>= ?x7843 0.0)))
(let ((?x1275 (ite $x8720 ?x7843 ?x7680)))
(let ((?x1853 (* ?x5815 |AnkleRight Norm|)))
(let ((?x8863 (+ 0.0 ?x1853)))
(let ((?x7064 (+ ?x8863 ?x9240)))
(let ((?x1845 (+ ?x7064 ?x6435)))
(let ((?x7512 (+ ?x1845 ?x1853)))
(let ((?x2356 (- ?x7512 ?x11372)))
(let ((?x6168 (- 0.0 ?x2356)))
(let (($x2337 (>= ?x2356 0.0)))
(let ((?x3909 (ite $x2337 ?x2356 ?x6168)))
(let ((?x5231 (* ?x2501 |AnkleRight Norm|)))
(let ((?x2358 (+ 0.0 ?x5231)))
(let ((?x6123 (+ ?x2358 ?x4178)))
(let ((?x9876 (+ ?x6123 ?x277)))
(let ((?x10192 (+ ?x9876 ?x5231)))
(let ((?x8716 (- ?x10192 ?x4115)))
(let ((?x11038 (- 0.0 ?x8716)))
(let (($x9605 (>= ?x8716 0.0)))
(let ((?x8655 (ite $x9605 ?x8716 ?x11038)))
(let (($x142 (>= ?x8655 ?x3909)))
(let ((?x9688 (ite $x142 ?x8655 ?x3909)))
(let (($x8542 (>= ?x9688 ?x1275)))
(let ((?x1151 (ite $x8542 ?x9688 ?x1275)))
(let (($x7989 (< ?x1151 (/ 1.0 5.0))))
(let (($x4411 (and true $x7989)))
(let (($x6883 (and true true)))
(let (($x9026 (and $x6883 true)))
(let (($x4440 (and $x9026 $x4411)))
(let (($x11268 (and $x4440 $x7073)))
(let (($x13771 (and $x9026 true)))
(let (($x9593 (and $x13771 true)))
(let (($x8461 (and $x9593 true)))
(let (($x4245 (and $x8461 true)))
(let (($x11197 (and $x4245 true)))
(let (($x8629 (and $x11197 true)))
(let (($x2034 (and $x8629 true)))
(let (($x10868 (and $x2034 true)))
(let (($x8028 (and $x10868 true)))
(let (($x9778 (and $x8028 true)))
(let ((?x9194 (- |ThumbRight Z| |ThumbRight Z|)))
(let ((?x8486 (- 0.0 ?x9194)))
(let (($x6679 (>= ?x9194 0.0)))
(let ((?x8796 (ite $x6679 ?x9194 ?x8486)))
(let ((?x7398 (- |ThumbRight Y| |ThumbRight Y|)))
(let ((?x2945 (- 0.0 ?x7398)))
(let (($x2946 (>= ?x7398 0.0)))
(let ((?x10061 (ite $x2946 ?x7398 ?x2945)))
(let ((?x9143 (- |ThumbRight X| |ThumbRight X|)))
(let ((?x8632 (- 0.0 ?x9143)))
(let (($x4961 (>= ?x9143 0.0)))
(let ((?x11066 (ite $x4961 ?x9143 ?x8632)))
(let (($x9863 (>= ?x11066 ?x10061)))
(let ((?x2010 (ite $x9863 ?x11066 ?x10061)))
(let (($x8858 (>= ?x2010 ?x8796)))
(let ((?x7351 (ite $x8858 ?x2010 ?x8796)))
(let (($x10727 (< ?x7351 15.0)))
(let (($x9765 (and $x10727)))
(and $x9765 $x9778 $x11268)))))))))))))))))))))))))))))))))))))))))))))))))))))))))))))))))))))))))))))))))))))))))))))))))))))))))))))))))))))))))))))))))))))))))))))))))))))))))))))))))))))))))))))))))))))))))))))))))))))))))
(check-sat)
